sing20150806.12
TTAA 56121 48698
99006 26218 07503 00073 26021 13505 92759 22427 17512
85493 18634 26511 70137 09642 30026 50586 04959 23019
40758 14769 13019 30969 29941 10510 25096 40544 03010
20244 53350 02020 15423 67557 06060 10661 75960 31002
88999
77127 07580 42970=
TTCC 56122 48698
70866 74766 09033 50070 60180 29013 30391 54985 27020
20658 44790 29031
88935 78958 31512
77999=
TTDD 5612/ 48698
11935 78958 22882 79359 33801 74165 44740 77163 55693
73767 66637 77164 77621 76767 88610 67175 99561 57383
11406 61380 22327 55584 33306 56583 44255 45989 55233
48189 66199 44790 77167 46589
21212 11925 32012 22891 33518 33863 03021 44824 07033
55772 12528 66741 13528 77698 09033 88644 08038 99620
09045 11605 10540 22586 09029 33539 36012 44522 30006
55510 28510 66444 26044 77401 26534 88383 26544 99312
28022 11290 26518 22281 27020 33269 30512 44264 29510
55258 26015 66248 25529 77205 28034 88175 30523 99167
29020=
